StudentsNr = 10;
InstructorsNr = 24;
DaysNr = 1;
SlotsPerDay = 20;
AvailabilitySlotsLenght = 20;
RoomNr = 1;
ProgrammNr = 1;
DegreeNr = 2;
RolesNr = 1;
CoursesNr = 2;
InstructorsProgramm = [{1}, {1}, {1}, {1}, {1}, {1}, {1}, {1}, {1}, {1}, {1}, {1}, {1}, {1}, {1}, {1}, {1}, {1}, {1}, {1}, {1}, {1}, {1}, {1}];
InstructorRolesPerProgramm = [|{1, 2, 4, 6, 8, 9, 10, 11, 12, 13, 15, 18, 20, 21, 23, 24}|];
InstructorsAvailability = [|0, |0, |0, |1, |0, |0, |0, |0, |0, |1, |1, |0, |0, |1, |1, |1, |1, |0, |0, |1, |1, |1, |1, |0|];
StudentsProgramm = [1, 1, 1, 1, 1, 1, 1, 1, 1, 1];
StudentsDegree = [2, 2, 1, 2, 2, 1, 1, 2, 2, 1];
StudentsSupervisorId = [1, 2, 21, 22, 19, 5, 10, 24, 17, 4];
StudentsCourseIds = [{2}, {1}, {1, 2}, {1}, {1}, {1, 2}, {1, 2}, {2}, {2}, {1, 2}];
StudentsAvailability = [|1, |0, |1, |0, |1, |1, |0, |0, |0, |1|];
TheoryticalMinCard = [0, 0, 0, 0, 0, 1, 0, 0, 1, 0];
CoursesInstructorIds = [{3, 4, 6, 7, 10, 11, 13, 17, 19, 20, 22}, {23}];
RolesDemands = [9];
RolesContinuity = [];
ExamLen = [1, 1, 1, 1, 1, 1, 1, 1, 1, 1];
LunchTsMinLen = 0;
LunchStarts = [10..15];
SupervisorAvailable = 0;
OptimalLunchLenght = [2, 0];
OptimalStartTs = [2, 0];
OptimalFinishTs = [1, 20];
MinimizeRooms = 300;
RolesSoftContinuity = [|1|1|];
SameDegreeInRoom = 20;
Mergeability = 2;
